p edges 790 1230
n 1 45.448
n 2 46.4476
n 3 5.12178
n 4 47.0789
n 5 4.04998
n 6 41.0111
n 7 0.441662
n 8 1.44166
n 9 39.8274
n 10 0.770482
n 11 1.77048
n 12 36.3154
n 13 0.392675
n 14 32.5478
n 15 0.718368
n 16 42.2948
n 17 1.99494
n 18 2.99494
n 19 33.4512
n 20 9.0335
n 21 10.0335
n 22 35.2965
n 23 1.10955
n 24 2.10955
n 25 41.6191
n 26 4.06155
n 27 25.7599
n 28 0.442493
n 29 1.44249
n 30 41.5531
n 31 2.10276
n 32 31.7941
n 33 4.97766
n 34 5.97766
n 35 41.184
n 36 4.88094
n 37 32.5666
n 38 6.69729
n 39 37.3152
n 40 5.18698
n 41 35.1746
n 42 2.94674
n 43 3.94674
n 44 42.9609
n 45 4.63986
n 46 5.63986
n 47 47.9329
n 48 6.40806
n 49 7.40806
n 50 28.1264
n 51 0.118203
n 52 1.1182
n 53 32.3234
n 54 3.29154
n 55 33.4453
n 56 2.8751
n 57 3.8751
n 58 41.7634
n 59 4.79043
n 60 2.39256
n 61 3.39256
n 62 3.82785
n 63 3.77378
n 64 3.66829
n 65 4.66829
n 66 2.58985
n 67 6.42966
n 68 3.18237
n 69 0.479443
n 70 1.47944
n 71 1.97486
n 72 5.08338
n 73 6.08338
n 74 5.17119
n 75 0.0288958
n 76 6.59715
n 77 1.81881
n 78 5.64746
n 79 6.64746
n 80 1.00643
n 81 3.30658
n 82 3.77649
n 83 4.77649
n 84 2.06063
n 85 0.860304
n 86 3.21305
n 87 46.8189
n 88 0.153412
n 89 4.26726
n 90 5.26726
n 91 5.79401
n 92 6.79401
n 93 2.25803
n 94 3.25803
n 95 3.28355
n 96 8.17929
n 97 2.08093
n 98 3.08093
n 99 2.82499
n 100 3.82499
n 101 7.76585
n 102 8.76585
n 103 7.26179
n 104 8.26179
n 105 1.97915
n 106 2.97915
n 107 1.16651
n 108 2.16651
n 109 1.7297
n 110 2.7297
n 111 0.527165
n 112 1.16544
n 113 0.584189
n 114 0.364336
n 115 1.36434
n 116 4.93285
n 117 1.61233
n 118 1.53263
n 119 2.53263
n 120 2.03576
n 121 3.03576
n 122 2.35196
n 123 3.35196
n 124 54.7211
n 125 8.21606
n 126 9.21606
n 127 4.19607
n 128 3.68776
n 129 4.68776
n 130 1.30775
n 131 0.105266
n 132 4.96073
n 133 5.96073
n 134 6.46519
n 135 7.46519
n 136 2.91837
n 137 3.91837
n 138 10.8583
n 139 11.8583
n 140 6.7942
n 141 7.7942
n 142 3.67382
n 143 4.67382
n 144 0.350013
n 145 1.35001
n 146 6.8111
n 147 5.87918
n 148 4.04642
n 149 2.64233
n 150 3.64233
n 151 2.02444
n 152 3.02444
n 153 5.50182
n 154 5.33819
n 155 1.71772
n 156 2.71772
n 157 1.45772
n 158 2.45772
n 159 1.76878
n 160 2.76878
n 161 42.6249
n 162 2.57108
n 163 3.57108
n 164 0.012354
n 165 1.01235
n 166 7.48883
n 167 0.658654
n 168 3.9078
n 169 4.9078
n 170 1.61001
n 171 2.61001
n 172 4.49417
n 173 5.49417
n 174 5.7612
n 175 0.964106
n 176 1.96411
n 177 0.988059
n 178 1.98806
n 179 2.5143
n 180 0.400188
n 181 1.40019
n 182 4.63573
n 183 1.86824
n 184 2.86824
n 185 0.706528
n 186 1.70653
n 187 1.20612
n 188 8.04934
n 189 9.04934
n 190 1.84141
n 191 2.84141
n 192 0.486117
n 193 1.48612
n 194 2.22424
n 195 3.08533
n 196 4.08533
n 197 1.09885
n 198 48.404
n 199 5.67374
n 200 6.67374
n 201 6.43327
n 202 7.43327
n 203 1.42773
n 204 2.42773
n 205 0.434857
n 206 4.00653
n 207 5.00653
n 208 0.437038
n 209 1.43704
n 210 0.202118
n 211 2.94809
n 212 3.94809
n 213 4.09386
n 214 5.09386
n 215 3.95236
n 216 2.27619
n 217 6.88282
n 218 6.81578
n 219 7.81578
n 220 7.88198
n 221 8.88198
n 222 2.07293
n 223 3.07293
n 224 2.29312
n 225 1.89921
n 226 2.89921
n 227 1.22177
n 228 5.48238
n 229 2.83895
n 230 6.99531
n 231 1.99694
n 232 55.1313
n 233 5.6431
n 234 4.74456
n 235 5.74456
n 236 4.70322
n 237 8.59047
n 238 9.59047
n 239 7.11945
n 240 0.313252
n 241 1.31325
n 242 4.09023
n 243 5.09023
n 244 1.81954
n 245 2.81954
n 246 1.87441
n 247 1.98854
n 248 2.98854
n 249 1.49708
n 250 2.49708
n 251 5.99864
n 252 6.99864
n 253 1.32481
n 254 2.19244
n 255 0.524664
n 256 1.52466
n 257 7.44961
n 258 0.0871071
n 259 1.08711
n 260 0.978583
n 261 1.97858
n 262 5.24555
n 263 6.24555
n 264 6.13701
n 265 7.13701
n 266 5.45449
n 267 4.12271
n 268 60.5441
n 269 5.4515
n 270 6.4515
n 271 4.73184
n 272 2.18424
n 273 3.18424
n 274 5.00753
n 275 6.00753
n 276 6.13158
n 277 7.13158
n 278 6.98807
n 279 13.2174
n 280 14.2174
n 281 3.6896
n 282 4.6896
n 283 2.48357
n 284 0.0203959
n 285 1.0204
n 286 2.90254
n 287 0.288731
n 288 1.28873
n 289 6.57032
n 290 7.57032
n 291 0.293592
n 292 1.29359
n 293 1.63016
n 294 2.63016
n 295 6.54787
n 296 5.60327
n 297 4.15926
n 298 5.15926
n 299 0.892605
n 300 1.89261
n 301 0.890201
n 302 1.8902
n 303 1.77168
n 304 5.55186
n 305 42.7014
n 306 4.4053
n 307 1.48128
n 308 4.75336
n 309 5.75336
n 310 0.668527
n 311 1.66853
n 312 0.735587
n 313 2.6405
n 314 3.6405
n 315 7.78499
n 316 8.78499
n 317 0.308644
n 318 1.30864
n 319 2.69857
n 320 3.69857
n 321 3.46354
n 322 4.46354
n 323 2.18167
n 324 6.19203
n 325 4.63042
n 326 2.72019
n 327 3.72019
n 328 1.89381
n 329 2.89381
n 330 3.1957
n 331 4.1957
n 332 0.298274
n 333 3.40191
n 334 4.40191
n 335 6.70856
n 336 0.345845
n 337 0.88344
n 338 1.88344
n 339 1.4731
n 340 2.4731
n 341 53.5067
n 342 4.06267
n 343 0.407129
n 344 1.40713
n 345 7.71408
n 346 8.71408
n 347 0.363205
n 348 1.99059
n 349 7.4841
n 350 2.05799
n 351 5.07961
n 352 1.9221
n 353 2.9221
n 354 5.30589
n 355 2.71406
n 356 3.71406
n 357 2.63314
n 358 5.11276
n 359 2.84713
n 360 5.51432
n 361 6.34847
n 362 7.34847
n 363 7.6251
n 364 8.6251
n 365 4.8171
n 366 5.8171
n 367 6.98071
n 368 7.98071
n 369 1.48541
n 370 2.48541
n 371 2.71909
n 372 1.7968
n 373 37.662
n 374 0.309655
n 375 2.85833
n 376 3.85833
n 377 1.32295
n 378 2.32295
n 379 0.679464
n 380 1.67946
n 381 3.26345
n 382 0.415319
n 383 1.41532
n 384 1.32989
n 385 2.32989
n 386 3.35327
n 387 0.915763
n 388 1.91576
n 389 7.3021
n 390 8.3021
n 391 3.33343
n 392 4.33343
n 393 0.280732
n 394 2.46859
n 395 0.74621
n 396 1.72806
n 397 2.72806
n 398 0.258688
n 399 1.25869
n 400 5.2238
n 401 6.2238
n 402 3.92235
n 403 3.66285
n 404 4.66285
n 405 4.63662
n 406 5.63662
n 407 4.68652
n 408 0.377215
n 409 42.6755
n 410 0.417004
n 411 1.417
n 412 11.4819
n 413 12.4819
n 414 0.314943
n 415 1.31494
n 416 1.41826
n 417 2.41826
n 418 6.25489
n 419 7.25489
n 420 1.6587
n 421 0.252331
n 422 1.25233
n 423 0.43222
n 424 1.76661
n 425 1.77345
n 426 1.09464
n 427 2.09464
n 428 0.224462
n 429 0.711721
n 430 0.759439
n 431 1.75944
n 432 1.99219
n 433 4.59655
n 434 0.644466
n 435 1.64447
n 436 6.76585
n 437 7.76585
n 438 4.15699
n 439 5.15699
n 440 2.36049
n 441 3.36049
n 442 0.200836
n 443 1.20084
n 444 4.20897
n 445 5.20897
n 446 52.8033
n 447 7.9425
n 448 8.9425
n 449 3.12116
n 450 4.12116
n 451 4.91697
n 452 7.5615
n 453 1.7729
n 454 6.3297
n 455 7.3297
n 456 1.97015
n 457 4.31848
n 458 5.31848
n 459 8.14329
n 460 9.14329
n 461 5.15845
n 462 6.15845
n 463 1.65758
n 464 4.69026
n 465 5.69026
n 466 0.0419432
n 467 1.04194
n 468 0.212802
n 469 1.2128
n 470 4.80266
n 471 3.22441
n 472 3.35497
n 473 4.35497
n 474 0.39166
n 475 1.39166
n 476 6.15428
n 477 7.15428
n 478 4.00106
n 479 1.62238
n 480 1.00694
n 481 45.9186
n 482 3.42289
n 483 4.42289
n 484 3.00434
n 485 3.8686
n 486 4.8686
n 487 8.74333
n 488 9.74333
n 489 1.05607
n 490 3.235
n 491 3.53472
n 492 4.53472
n 493 0.0474069
n 494 2.2656
n 495 4.50759
n 496 3.36733
n 497 4.36733
n 498 2.47391
n 499 7.90243
n 500 4.17365
n 501 5.17365
n 502 1.97142
n 503 3.06834
n 504 1.11777
n 505 0.011416
n 506 1.01142
n 507 3.20142
n 508 4.20142
n 509 0.479769
n 510 1.47977
n 511 4.02197
n 512 5.02197
n 513 2.06363
n 514 3.06363
n 515 47.3915
n 516 7.30458
n 517 8.30458
n 518 6.28108
n 519 7.28108
n 520 1.47813
n 521 4.3331
n 522 5.3331
n 523 4.83389
n 524 5.83389
n 525 2.04869
n 526 3.04869
n 527 0.88158
n 528 1.88158
n 529 1.31364
n 530 2.31364
n 531 1.75412
n 532 4.24842
n 533 2.33018
n 534 3.33018
n 535 0.717162
n 536 1.71716
n 537 0.962933
n 538 1.96293
n 539 7.79447
n 540 3.99037
n 541 3.52492
n 542 4.52492
n 543 2.60463
n 544 3.60463
n 545 5.03032
n 546 4.12785
n 547 1.55564
n 548 2.55564
n 549 1.37138
n 550 2.37138
n 551 0.185599
n 552 1.1856
n 553 36.0122
n 554 0.608477
n 555 4.36732
n 556 4.64447
n 557 5.64447
n 558 3.37728
n 559 5.70524
n 560 1.18511
n 561 3.59489
n 562 0.0822102
n 563 4.28855
n 564 8.61911
n 565 9.61911
n 566 0.77433
n 567 1.77433
n 568 3.31136
n 569 0.368791
n 570 3.48714
n 571 4.48714
n 572 3.0953
n 573 1.66896
n 574 6.85933
n 575 1.32013
n 576 2.32013
n 577 3.6791
n 578 4.6791
n 579 1.24022
n 580 2.24022
n 581 0.408503
n 582 1.46861
n 583 52.1244
n 584 1.92929
n 585 2.92929
n 586 6.98082
n 587 3.66298
n 588 4.66298
n 589 3.39143
n 590 0.681141
n 591 0.286868
n 592 1.28687
n 593 1.02655
n 594 2.02655
n 595 6.46927
n 596 7.46927
n 597 1.80524
n 598 2.98509
n 599 0.283008
n 600 1.28301
n 601 5.46369
n 602 6.46369
n 603 1.76341
n 604 2.76341
n 605 3.50305
n 606 1.0525
n 607 2.69309
n 608 3.69309
n 609 4.81039
n 610 5.81039
n 611 4.69756
n 612 6.67128
n 613 7.67128
n 614 3.5614
n 615 2.45381
n 616 8.66457
n 617 55.0004
n 618 3.89319
n 619 4.89319
n 620 2.32081
n 621 3.66582
n 622 8.78019
n 623 9.78019
n 624 2.22927
n 625 3.22927
n 626 4.87923
n 627 5.87923
n 628 3.85944
n 629 1.51426
n 630 2.51426
n 631 6.36692
n 632 7.36692
n 633 1.04232
n 634 2.04232
n 635 1.76002
n 636 11.4474
n 637 0.114089
n 638 1.92154
n 639 2.92154
n 640 3.7988
n 641 4.7988
n 642 4.25399
n 643 4.80859
n 644 5.80859
n 645 8.31076
n 646 9.31076
n 647 3.03937
n 648 1.58194
n 649 2.58194
n 650 5.62478
n 651 6.62478
n 652 5.63872
n 653 6.63872
n 654 40.6706
n 655 5.55412
n 656 6.55412
n 657 6.71162
n 658 7.71162
n 659 0.103246
n 660 1.10325
n 661 5.9132
n 662 3.60218
n 663 2.33145
n 664 5.77217
n 665 5.28399
n 666 3.33835
n 667 4.33835
n 668 0.223172
n 669 0.654267
n 670 3.64939
n 671 0.160785
n 672 1.16078
n 673 1.42743
n 674 2.42743
n 675 0.961012
n 676 1.18565
n 677 2.18565
n 678 5.33522
n 679 6.33522
n 680 3.04208
n 681 2.45968
n 682 3.45968
n 683 3.64603
n 684 4.64603
n 685 1.52023
n 686 2.52023
n 687 1.85702
n 688 43.4073
n 689 0.250181
n 690 1.25018
n 691 4.00843
n 692 5.00843
n 693 1.01414
n 694 2.01414
n 695 4.44971
n 696 5.44971
n 697 0.441541
n 698 1.44154
n 699 0.825087
n 700 0.575948
n 701 1.57595
n 702 1.74258
n 703 0.289561
n 704 1.28956
n 705 5.09086
n 706 6.09086
n 707 2.15691
n 708 3.29119
n 709 1.40137
n 710 2.40137
n 711 0.20345
n 712 1.20345
n 713 6.21641
n 714 5.69522
n 715 5.61111
n 716 2.18946
n 717 3.18946
n 718 4.47972
n 719 5.47972
n 720 2.43539
n 721 3.43539
n 722 8.15314
n 723 9.15314
n 724 0.450221
n 725 1.45022
n 726 51.6665
n 727 9.31195
n 728 10.3119
n 729 3.41182
n 730 4.41182
n 731 1.60809
n 732 3.15493
n 733 7.52391
n 734 5.27833
n 735 6.27833
n 736 2.19818
n 737 0.453283
n 738 3.56237
n 739 4.56237
n 740 0.292878
n 741 1.29288
n 742 5.52224
n 743 6.52224
n 744 6.76335
n 745 1.29272
n 746 3.11168
n 747 4.11168
n 748 6.24131
n 749 7.24131
n 750 3.46975
n 751 0.296826
n 752 1.29683
n 753 6.99593
n 754 7.2259
n 755 5.17411
n 756 6.17411
n 757 1.40032
n 758 2.40032
n 759 7.0672
n 760 55.3532
n 761 3.79186
n 762 1.47809
n 763 2.47809
n 764 7.71241
n 765 3.15434
n 766 2.66658
n 767 0.19752
n 768 1.19752
n 769 7.23585
n 770 8.23585
n 771 3.44673
n 772 3.58141
n 773 4.89841
n 774 2.56007
n 775 4.8595
n 776 5.8595
n 777 1.4163
n 778 2.4163
n 779 11.1372
n 780 12.1372
n 781 2.25971
n 782 1.9836
n 783 6.49833
n 784 2.21445
n 785 3.21445
n 786 2.53818
n 787 2.00194
n 788 4.38119
n 789 5.38119
n 790 12.5118
e 1 3
e 2 3
e 1 5
e 4 5
e 7 8
e 8 1
e 7 6
e 10 11
e 11 1
e 10 9
e 1 13
e 12 13
e 1 15
e 14 15
e 17 18
e 18 1
e 17 16
e 20 21
e 21 1
e 20 19
e 23 24
e 24 1
e 23 22
e 1 26
e 25 26
e 28 29
e 29 1
e 28 27
e 1 31
e 30 31
e 33 34
e 34 1
e 33 32
e 1 36
e 35 36
e 1 38
e 37 38
e 1 40
e 39 40
e 42 43
e 43 1
e 42 41
e 45 46
e 46 1
e 45 44
e 48 49
e 49 1
e 48 47
e 51 52
e 52 1
e 51 50
e 1 54
e 53 54
e 56 57
e 57 1
e 56 55
e 58 59
e 2 59
e 60 61
e 61 58
e 60 4
e 58 62
e 6 62
e 58 63
e 9 63
e 64 65
e 65 58
e 64 12
e 58 66
e 14 66
e 58 67
e 16 67
e 58 68
e 19 68
e 69 70
e 70 58
e 69 22
e 58 71
e 25 71
e 72 73
e 73 58
e 72 27
e 58 74
e 30 74
e 58 75
e 32 75
e 58 76
e 35 76
e 58 77
e 37 77
e 78 79
e 79 58
e 78 39
e 58 80
e 41 80
e 58 81
e 44 81
e 82 83
e 83 58
e 82 47
e 58 84
e 50 84
e 58 85
e 53 85
e 58 86
e 55 86
e 87 88
e 2 88
e 89 90
e 90 87
e 89 4
e 91 92
e 92 87
e 91 6
e 93 94
e 94 87
e 93 9
e 87 95
e 12 95
e 87 96
e 14 96
e 97 98
e 98 87
e 97 16
e 99 100
e 100 87
e 99 19
e 101 102
e 102 87
e 101 22
e 103 104
e 104 87
e 103 25
e 105 106
e 106 87
e 105 27
e 107 108
e 108 87
e 107 30
e 109 110
e 110 87
e 109 32
e 87 111
e 35 111
e 87 112
e 37 112
e 87 113
e 39 113
e 114 115
e 115 87
e 114 41
e 87 116
e 44 116
e 87 117
e 47 117
e 118 119
e 119 87
e 118 50
e 120 121
e 121 87
e 120 53
e 122 123
e 123 87
e 122 55
e 125 126
e 126 124
e 125 2
e 124 127
e 4 127
e 128 129
e 129 124
e 128 6
e 124 130
e 9 130
e 124 131
e 12 131
e 132 133
e 133 124
e 132 14
e 134 135
e 135 124
e 134 16
e 136 137
e 137 124
e 136 19
e 138 139
e 139 124
e 138 22
e 140 141
e 141 124
e 140 25
e 142 143
e 143 124
e 142 27
e 144 145
e 145 124
e 144 30
e 124 146
e 32 146
e 124 147
e 35 147
e 124 148
e 37 148
e 149 150
e 150 124
e 149 39
e 151 152
e 152 124
e 151 41
e 124 153
e 44 153
e 124 154
e 47 154
e 155 156
e 156 124
e 155 50
e 157 158
e 158 124
e 157 53
e 159 160
e 160 124
e 159 55
e 162 163
e 163 161
e 162 2
e 164 165
e 165 161
e 164 4
e 161 166
e 6 166
e 161 167
e 9 167
e 168 169
e 169 161
e 168 12
e 170 171
e 171 161
e 170 14
e 172 173
e 173 161
e 172 16
e 161 174
e 19 174
e 175 176
e 176 161
e 175 22
e 177 178
e 178 161
e 177 25
e 161 179
e 27 179
e 180 181
e 181 161
e 180 30
e 161 182
e 32 182
e 183 184
e 184 161
e 183 35
e 185 186
e 186 161
e 185 37
e 161 187
e 39 187
e 188 189
e 189 161
e 188 41
e 190 191
e 191 161
e 190 44
e 192 193
e 193 161
e 192 47
e 161 194
e 50 194
e 195 196
e 196 161
e 195 53
e 161 197
e 55 197
e 199 200
e 200 198
e 199 2
e 201 202
e 202 198
e 201 4
e 203 204
e 204 198
e 203 6
e 198 205
e 9 205
e 206 207
e 207 198
e 206 12
e 208 209
e 209 198
e 208 14
e 198 210
e 16 210
e 211 212
e 212 198
e 211 19
e 213 214
e 214 198
e 213 22
e 198 215
e 25 215
e 198 216
e 27 216
e 198 217
e 30 217
e 218 219
e 219 198
e 218 32
e 220 221
e 221 198
e 220 35
e 222 223
e 223 198
e 222 37
e 198 224
e 39 224
e 225 226
e 226 198
e 225 41
e 198 227
e 44 227
e 198 228
e 47 228
e 198 229
e 50 229
e 198 230
e 53 230
e 198 231
e 55 231
e 232 233
e 2 233
e 234 235
e 235 232
e 234 4
e 232 236
e 6 236
e 237 238
e 238 232
e 237 9
e 232 239
e 12 239
e 240 241
e 241 232
e 240 14
e 242 243
e 243 232
e 242 16
e 244 245
e 245 232
e 244 19
e 232 246
e 22 246
e 247 248
e 248 232
e 247 25
e 249 250
e 250 232
e 249 27
e 251 252
e 252 232
e 251 30
e 232 253
e 32 253
e 232 254
e 35 254
e 255 256
e 256 232
e 255 37
e 232 257
e 39 257
e 258 259
e 259 232
e 258 41
e 260 261
e 261 232
e 260 44
e 262 263
e 263 232
e 262 47
e 264 265
e 265 232
e 264 50
e 232 266
e 53 266
e 232 267
e 55 267
e 269 270
e 270 268
e 269 2
e 268 271
e 4 271
e 272 273
e 273 268
e 272 6
e 274 275
e 275 268
e 274 9
e 276 277
e 277 268
e 276 12
e 268 278
e 14 278
e 279 280
e 280 268
e 279 16
e 281 282
e 282 268
e 281 19
e 268 283
e 22 283
e 284 285
e 285 268
e 284 25
e 268 286
e 27 286
e 287 288
e 288 268
e 287 30
e 289 290
e 290 268
e 289 32
e 291 292
e 292 268
e 291 35
e 293 294
e 294 268
e 293 37
e 268 295
e 39 295
e 268 296
e 41 296
e 297 298
e 298 268
e 297 44
e 299 300
e 300 268
e 299 47
e 301 302
e 302 268
e 301 50
e 268 303
e 53 303
e 268 304
e 55 304
e 305 306
e 2 306
e 305 307
e 4 307
e 308 309
e 309 305
e 308 6
e 310 311
e 311 305
e 310 9
e 305 312
e 12 312
e 313 314
e 314 305
e 313 14
e 315 316
e 316 305
e 315 16
e 317 318
e 318 305
e 317 19
e 319 320
e 320 305
e 319 22
e 321 322
e 322 305
e 321 25
e 305 323
e 27 323
e 305 324
e 30 324
e 305 325
e 32 325
e 326 327
e 327 305
e 326 35
e 328 329
e 329 305
e 328 37
e 330 331
e 331 305
e 330 39
e 305 332
e 41 332
e 333 334
e 334 305
e 333 44
e 305 335
e 47 335
e 305 336
e 50 336
e 337 338
e 338 305
e 337 53
e 339 340
e 340 305
e 339 55
e 341 342
e 2 342
e 343 344
e 344 341
e 343 4
e 345 346
e 346 341
e 345 6
e 341 347
e 9 347
e 341 348
e 12 348
e 341 349
e 14 349
e 341 350
e 16 350
e 341 351
e 19 351
e 352 353
e 353 341
e 352 22
e 341 354
e 25 354
e 355 356
e 356 341
e 355 27
e 341 357
e 30 357
e 341 358
e 32 358
e 341 359
e 35 359
e 341 360
e 37 360
e 361 362
e 362 341
e 361 39
e 363 364
e 364 341
e 363 41
e 365 366
e 366 341
e 365 44
e 367 368
e 368 341
e 367 47
e 369 370
e 370 341
e 369 50
e 341 371
e 53 371
e 341 372
e 55 372
e 373 374
e 2 374
e 375 376
e 376 373
e 375 4
e 377 378
e 378 373
e 377 6
e 379 380
e 380 373
e 379 9
e 373 381
e 12 381
e 382 383
e 383 373
e 382 14
e 384 385
e 385 373
e 384 16
e 373 386
e 19 386
e 387 388
e 388 373
e 387 22
e 389 390
e 390 373
e 389 25
e 391 392
e 392 373
e 391 27
e 373 393
e 30 393
e 373 394
e 32 394
e 373 395
e 35 395
e 396 397
e 397 373
e 396 37
e 398 399
e 399 373
e 398 39
e 400 401
e 401 373
e 400 41
e 373 402
e 44 402
e 403 404
e 404 373
e 403 47
e 405 406
e 406 373
e 405 50
e 373 407
e 53 407
e 373 408
e 55 408
e 410 411
e 411 409
e 410 2
e 412 413
e 413 409
e 412 4
e 414 415
e 415 409
e 414 6
e 416 417
e 417 409
e 416 9
e 418 419
e 419 409
e 418 12
e 409 420
e 14 420
e 421 422
e 422 409
e 421 16
e 409 423
e 19 423
e 409 424
e 22 424
e 409 425
e 25 425
e 426 427
e 427 409
e 426 27
e 409 428
e 30 428
e 409 429
e 32 429
e 430 431
e 431 409
e 430 35
e 409 432
e 37 432
e 409 433
e 39 433
e 434 435
e 435 409
e 434 41
e 436 437
e 437 409
e 436 44
e 438 439
e 439 409
e 438 47
e 440 441
e 441 409
e 440 50
e 442 443
e 443 409
e 442 53
e 444 445
e 445 409
e 444 55
e 447 448
e 448 446
e 447 2
e 449 450
e 450 446
e 449 4
e 446 451
e 6 451
e 446 452
e 9 452
e 446 453
e 12 453
e 454 455
e 455 446
e 454 14
e 446 456
e 16 456
e 457 458
e 458 446
e 457 19
e 459 460
e 460 446
e 459 22
e 461 462
e 462 446
e 461 25
e 446 463
e 27 463
e 464 465
e 465 446
e 464 30
e 466 467
e 467 446
e 466 32
e 468 469
e 469 446
e 468 35
e 446 470
e 37 470
e 446 471
e 39 471
e 472 473
e 473 446
e 472 41
e 474 475
e 475 446
e 474 44
e 476 477
e 477 446
e 476 47
e 446 478
e 50 478
e 446 479
e 53 479
e 446 480
e 55 480
e 482 483
e 483 481
e 482 2
e 481 484
e 4 484
e 485 486
e 486 481
e 485 6
e 487 488
e 488 481
e 487 9
e 481 489
e 12 489
e 481 490
e 14 490
e 491 492
e 492 481
e 491 16
e 481 493
e 19 493
e 481 494
e 22 494
e 481 495
e 25 495
e 496 497
e 497 481
e 496 27
e 481 498
e 30 498
e 481 499
e 32 499
e 500 501
e 501 481
e 500 35
e 481 502
e 37 502
e 481 503
e 39 503
e 481 504
e 41 504
e 505 506
e 506 481
e 505 44
e 507 508
e 508 481
e 507 47
e 509 510
e 510 481
e 509 50
e 511 512
e 512 481
e 511 53
e 513 514
e 514 481
e 513 55
e 516 517
e 517 515
e 516 2
e 518 519
e 519 515
e 518 4
e 515 520
e 6 520
e 521 522
e 522 515
e 521 9
e 523 524
e 524 515
e 523 12
e 525 526
e 526 515
e 525 14
e 527 528
e 528 515
e 527 16
e 529 530
e 530 515
e 529 19
e 515 531
e 22 531
e 515 532
e 25 532
e 533 534
e 534 515
e 533 27
e 535 536
e 536 515
e 535 30
e 537 538
e 538 515
e 537 32
e 515 539
e 35 539
e 515 540
e 37 540
e 541 542
e 542 515
e 541 39
e 543 544
e 544 515
e 543 41
e 515 545
e 44 545
e 515 546
e 47 546
e 547 548
e 548 515
e 547 50
e 549 550
e 550 515
e 549 53
e 551 552
e 552 515
e 551 55
e 553 554
e 2 554
e 553 555
e 4 555
e 556 557
e 557 553
e 556 6
e 553 558
e 9 558
e 553 559
e 12 559
e 553 560
e 14 560
e 553 561
e 16 561
e 553 562
e 19 562
e 553 563
e 22 563
e 564 565
e 565 553
e 564 25
e 566 567
e 567 553
e 566 27
e 553 568
e 30 568
e 553 569
e 32 569
e 570 571
e 571 553
e 570 35
e 553 572
e 37 572
e 553 573
e 39 573
e 553 574
e 41 574
e 575 576
e 576 553
e 575 44
e 577 578
e 578 553
e 577 47
e 579 580
e 580 553
e 579 50
e 553 581
e 53 581
e 553 582
e 55 582
e 584 585
e 585 583
e 584 2
e 583 586
e 4 586
e 587 588
e 588 583
e 587 6
e 583 589
e 9 589
e 583 590
e 12 590
e 591 592
e 592 583
e 591 14
e 593 594
e 594 583
e 593 16
e 595 596
e 596 583
e 595 19
e 583 597
e 22 597
e 583 598
e 25 598
e 599 600
e 600 583
e 599 27
e 601 602
e 602 583
e 601 30
e 603 604
e 604 583
e 603 32
e 583 605
e 35 605
e 583 606
e 37 606
e 607 608
e 608 583
e 607 39
e 609 610
e 610 583
e 609 41
e 583 611
e 44 611
e 612 613
e 613 583
e 612 47
e 583 614
e 50 614
e 583 615
e 53 615
e 583 616
e 55 616
e 618 619
e 619 617
e 618 2
e 617 620
e 4 620
e 617 621
e 6 621
e 622 623
e 623 617
e 622 9
e 624 625
e 625 617
e 624 12
e 626 627
e 627 617
e 626 14
e 617 628
e 16 628
e 629 630
e 630 617
e 629 19
e 631 632
e 632 617
e 631 22
e 633 634
e 634 617
e 633 25
e 617 635
e 27 635
e 617 636
e 30 636
e 617 637
e 32 637
e 638 639
e 639 617
e 638 35
e 640 641
e 641 617
e 640 37
e 617 642
e 39 642
e 643 644
e 644 617
e 643 41
e 645 646
e 646 617
e 645 44
e 617 647
e 47 647
e 648 649
e 649 617
e 648 50
e 650 651
e 651 617
e 650 53
e 652 653
e 653 617
e 652 55
e 655 656
e 656 654
e 655 2
e 657 658
e 658 654
e 657 4
e 659 660
e 660 654
e 659 6
e 654 661
e 9 661
e 654 662
e 12 662
e 654 663
e 14 663
e 654 664
e 16 664
e 654 665
e 19 665
e 666 667
e 667 654
e 666 22
e 654 668
e 25 668
e 654 669
e 27 669
e 654 670
e 30 670
e 671 672
e 672 654
e 671 32
e 673 674
e 674 654
e 673 35
e 654 675
e 37 675
e 676 677
e 677 654
e 676 39
e 678 679
e 679 654
e 678 41
e 654 680
e 44 680
e 681 682
e 682 654
e 681 47
e 683 684
e 684 654
e 683 50
e 685 686
e 686 654
e 685 53
e 654 687
e 55 687
e 689 690
e 690 688
e 689 2
e 691 692
e 692 688
e 691 4
e 693 694
e 694 688
e 693 6
e 695 696
e 696 688
e 695 9
e 697 698
e 698 688
e 697 12
e 688 699
e 14 699
e 700 701
e 701 688
e 700 16
e 688 702
e 19 702
e 703 704
e 704 688
e 703 22
e 705 706
e 706 688
e 705 25
e 688 707
e 27 707
e 688 708
e 30 708
e 709 710
e 710 688
e 709 32
e 711 712
e 712 688
e 711 35
e 688 713
e 37 713
e 688 714
e 39 714
e 688 715
e 41 715
e 716 717
e 717 688
e 716 44
e 718 719
e 719 688
e 718 47
e 720 721
e 721 688
e 720 50
e 722 723
e 723 688
e 722 53
e 724 725
e 725 688
e 724 55
e 727 728
e 728 726
e 727 2
e 729 730
e 730 726
e 729 4
e 726 731
e 6 731
e 726 732
e 9 732
e 726 733
e 12 733
e 734 735
e 735 726
e 734 14
e 726 736
e 16 736
e 726 737
e 19 737
e 738 739
e 739 726
e 738 22
e 740 741
e 741 726
e 740 25
e 742 743
e 743 726
e 742 27
e 726 744
e 30 744
e 726 745
e 32 745
e 746 747
e 747 726
e 746 35
e 748 749
e 749 726
e 748 37
e 726 750
e 39 750
e 751 752
e 752 726
e 751 41
e 726 753
e 44 753
e 726 754
e 47 754
e 755 756
e 756 726
e 755 50
e 757 758
e 758 726
e 757 53
e 726 759
e 55 759
e 760 761
e 2 761
e 762 763
e 763 760
e 762 4
e 760 764
e 6 764
e 760 765
e 9 765
e 760 766
e 12 766
e 767 768
e 768 760
e 767 14
e 769 770
e 770 760
e 769 16
e 760 771
e 19 771
e 760 772
e 22 772
e 760 773
e 25 773
e 760 774
e 27 774
e 775 776
e 776 760
e 775 30
e 777 778
e 778 760
e 777 32
e 779 780
e 780 760
e 779 35
e 760 781
e 37 781
e 760 782
e 39 782
e 760 783
e 41 783
e 784 785
e 785 760
e 784 44
e 760 786
e 47 786
e 760 787
e 50 787
e 788 789
e 789 760
e 788 53
e 760 790
e 55 790
